============================[ Problem Statistics ]=============================|                                                                             ||  Number of variables:          4242                                         ||  Number of clauses:           10211                                         ||  Parse time:                   0.60 s                                       ||                                                                             |============================[ Search Statistics ]==============================| Conflicts |          ORIGINAL         |          LEARNT          | Progress ||           |    Vars  Clauses Literals |    Limit  Clauses Lit/Cl |          |===============================================================================|       100 |    1591     6416   955257 |     2352      100     53 | 62.501 % ||       250 |    1591     6416   955257 |     2587      250     75 | 62.495 % |===============================================================================restarts              : 3conflicts             : 330            (365 /sec)decisions             : 596            (0.00 % random) (659 /sec)propagations          : 11914          (13165 /sec)conflict literals     : 26518          (94.67 % deleted)CPU time              : 0.905 sSATISFIABLE